WARNING: for repeatability, setting FPU to use double precision
============================[ Problem Statistics ]=============================
|                                                                             |
|  Number of variables:           100                                         |
|  Number of clauses:             449                                         |
|  Parse time:                   0.00 s                                       |
|  Eliminated clauses:           0.00 Mb                                      |
|  Simplification time:          0.00 s                                       |
|                                                                             |
============================[ Search Statistics ]==============================
| Conflicts |          ORIGINAL         |          LEARNT          | Progress |
|           |    Vars  Clauses Literals |    Limit  Clauses Lit/Cl |          |
===============================================================================
===============================================================================
restarts              : 1
conflicts             : 85             (43412 /sec)
decisions             : 127            (0.00 % random) (64862 /sec)
propagations          : 2031           (1037283 /sec)
conflict literals     : 522            (11.53 % deleted)
Memory used           : 13.00 MB
CPU time              : 0.001958 s

SATISFIABLE
